c turning on binary mode checking
c parsing input formula with 259840 variables and 1039934 clauses
c finished parsing, read 3168261 bytes from proof file
c detected empty clause; start verification via backward checking
c 6349 of 1039934 clauses in core                            
c 2186 of 121985 lemmas in core using 57990 resolution steps
c 0 RAT lemmas in core; 328 redundant literals in core lemmas
s VERIFIED
c verification time: 1.518 seconds
